proyfinal/src/viki/013/experimentInOfficeAgust.take6.output/88d43fa2-afb0-4d15-9778-983e99c1f056.als.dat
{'cnf.clauses': '118081',
 'cnf.totvars': '69608',
 'conflict literals': '41',
 'conflicts': '16',
 'decisions': '5399',
 'memused.mb': '15.54',
 'outcome': 'UNSAT',
 'propagations': '29432',
 'restarts': '1',
 'solver.msecs': 34,
 'task.msecs': 83}
