proyfinal/src/viki/013/experimentInOfficeAgust.take6.output/88d43fa2-afb0-4d15-9778-983e99c1f056.als.out
Reading from standard input... Use '--help' for help.
============================[ Problem Statistics ]=============================
|                                                                             |
|  Number of variables:         69608                                         |
|  Number of clauses:          118081                                         |
|  Parse time:                   0.03 s                                       |
|                                                                             |
============================[ Search Statistics ]==============================
| Conflicts |          ORIGINAL         |          LEARNT          | Progress |
|           |    Vars  Clauses Literals |    Limit  Clauses Lit/Cl |          |
===============================================================================
===============================================================================
restarts              : 1
conflicts             : 16             (461 /sec)
decisions             : 5399           (0.00 % random) (155667 /sec)
propagations          : 29432          (848600 /sec)
conflict literals     : 41             (0.00 % deleted)
Memory used           : 15.54 MB
CPU time              : 0.034683 s

UNSATISFIABLE
